Reproduction of the Original Problem/Instances/S2-10/S2-5-10-1-s.txt
     200      10    0.05
       3       1       2       1       2       3       3       1       2       1       8       1      13       3       4       3       5      10       3       2       2
       3       3       3       1       2       2       1       3       2       1       1       1       4       2      16       6       3       1       5      10       1
       1       2       2       1       1       1       3       2       3       2      13      16      13      13      12       6       3       9       5       6       1
       1       1       1       3       3       1       1       3       1       2       4       7       4       8       9      13       2       4      15       8       2
       1       3       2       2       2       2       1       2       3       2      15      16      15      13       2       7      15       9       5      16       2
       2       2       2       2       3       3       2       3       1       1      16       2       4       8       9      14       9      16       3       5       1
       1       1       2       1       2       3       1       1       1       2      15       8       9       9      13      13       2       8      10       3       1
       1       2       1       1       3       1       3       3       3       2      15      10       0      11       5       7       5       7       0       6       1
       2       3       1       3       3       1       2       2       1       1       1       7       6       8       7       5      15       9      14       5       1
       2       3       2       1       1       1       1       1       1       3      13      15       8      10      15      10       5      11       3       8       1
       3       3       1       3       2       2       2       1       1       1       4      16      10       4       0      12       0       1       2       2       2
       1       3       1       2       3       1       2       3       2       1       7       9      15       0       6       9       5       7       7      10       2
       1       2       2       2       2       3       3       3       2       1       8      16       0       9      14       0      15       7       7      15       2
       2       2       2       2       1       3       3       3       2       2       5      14       5      14       3      12       9       2      14       0       1
       1       1       2       1       3       2       2       2       2       2       8       2      16       5      16       6       0      15       1       9       1
       2       2       1       3       2       3       1       1       1       2       4       1      14       7      11       1       4       8      15       5       1
       1       3       3       3       1       2       1       3       3       3       3      16      16       0       3       8       5      12       6       2       2
       3       1       2       3       1       3       1       3       1       2       4       0       0       7      13      13      10       4      12      13       2
       3       1       2       2       3       2       1       2       2       3       2      12       7       3       0       3      15       4      13      13       1
       1       2       1       3       2       2       3       1       1       3       4       5      13      10      11      10      15      11       3      16       1
       1       3       1       1       3       2       1       2       2       3       9      12      13      16       9      10      15       9       0      13       1
       2       2       1       3       1       1       2       3       1       2      14       1       9      13      11       5      12      12      16       1       2
       1       3       2       3       2       2       2       3       3       2       0      15       3      14      14       3       8       3       5       6       1
       1       3       3       3       2       3       3       2       1       3      10       7       1      14       6       5       0       6       6      12       1
       3       2       3       3       1       1       1       1       2       3       2       8       7       8       7      10      16       7       2       1       2
       3       3       2       3       1       3       3       1       3       1      10       9       9      13       9      12       4       5       4       0       1
       3       2       1       2       2       3       2       2       1       1       5       8      15       8      14       9       7       6       0       9       2
       1       1       3       3       1       2       3       2       1       2      16       8      14      14       4       0      12      15       7      16       2
       2       1       2       3       3       2       2       2       1       3      15       8       1       5       8       7      15       2       5      11       1
       1       1       3       2       1       1       2       2       1       1       6      11       9      11       4       6       9      15      13       8       2
       2       3       3       1       3       1       2       2       2       3       8      16       7       4      16      12      15      12      11      16       1
       3       1       3       2       3       3       1       3       2       3      11      13      13       7      12       4      13       5      12       2       1
       3       2       2       3       2       3       3       3       1       2      10       5       4       0       4       7       2       9      14       2       1
       2       3       2       3       2       2       3       1       2       2       9       0       3       1      12      10       0       4       6      14       2
       3       1       2       3       3       3       3       3       3       3       9       1      11      12       3       9       8       6      12       3       1
       3       2       2       2       2       2       3       1       1       2      15      15       5      11       1       5      16       3       2      13       1
       2       2       3       3       3       2       2       3       1       2      15       5      12       5      14       2       3      16       7       8       1
       1       3       1       3       1       2       2       2       1       2      10       3      13      13      15       4       2       1      15       9       1
       1       1       1       2       2       3       1       2       1       1       5       2      11      16       6       1       7       5       2       9       2
       1       3       2       2       3       3       1       1       1       1      14      15      16       5      15       6       8       2       2       1       2
       1       3       3       2       3       1       2       2       3       1       9      14      13      10      15       1      11      15       9       9       2
       3       3       3       3       3       2       2       2       1       1       2      13      15       2       0      14       9      11      14      10       2
       2       2       2       1       1       3       2       3       2       1      15      16      14      15       3       9       9       3      15      10       2
       3       1       1       3       2       1       2       3       2       3       1       9       5       5       8       2      15       5      13       4       2
       1       1       2       3       2       2       1       3       2       3      11       7      15       5      15       1      10       7       1      11       1
       2       2       2       2       2       2       3       2       1       1       3       5       9       0       7      10       3       0      13      13       1
       3       1       1       2       3       3       2       3       1       3       2       8      14      11       1       6      11       1       2      15       1
       1       1       2       1       2       1       2       1       1       3       8      10       7      14       6       0       6      12       3       7       1
       2       2       3       2       1       3       2       2       3       1      16       6       3       0      12      10       7      10       2       0       2
       2       1       2       1       2       2       1       2       1       1       1       8       1      14       0      16       4      13       3      11       2
       2       2       3       1       3       2       2       3       1       2      11       5       3      13       6      12       2       7      11       4       2
       3       2       2       3       2       2       3       3       2       2      15      16      15       5      15       5      12       6       3       2       2
       3       3       3       3       3       2       1       1       3       2       9       4       6       0      10      10       3       7       0       9       2
       1       2       1       1       1       1       1       2       1       1       8       9      16       8       0      15       5       7      10       7       2
       3       1       2       2       1       1       3       3       3       1       4       6       0       4      16       6      16      12       5      12       2
       2       3       1       2       1       3       1       1       1       3       8       0      12      10      10       8      14       6       0       4       1
       1       2       1       3       2       1       3       1       1       3       5      15       2      13       4      14      13       3       7      14       1
       3       1       3       3       2       1       1       3       1       2       9      11      15      16       2       4       0       8       7       0       1
       3       3       1       3       1       3       3       1       2       3       8       2       3       6       5       1       0       1       9       4       1
       3       2       2       1       3       2       1       1       3       3      16       2      14       9      12      16      14       9       7       4       2
       1       3       3       3       3       3       3       1       1       1       8       2       6       9       9      10       6       2       3      14       1
       3       3       3       2       2       2       1       1       3       3      15       6       7       3      15      14      12       0       5       5       2
       2       1       1       2       3       1       3       1       3       3      11       9       6       6      13       9       5      11       8      10       2
       3       2       1       3       2       3       3       1       3       1       5      10      12       2       3       2       5       1      12      15       1
       1       3       3       1       2       1       1       2       2       3      14       7       2      10       5       5       6       4      11       4       2
       1       3       2       1       1       2       1       2       2       1      13      13      10      15       0       6       5       6       5       9       1
       3       1       2       1       3       3       1       3       1       2       4      12       1      16      15       8      16      12       8       2       1
       3       3       3       1       2       3       1       1       2       1      16      11      14       6      10       3       5       4       0      12       2
       3       2       1       1       3       3       3       2       2       1       3       0       9       5       2       9      15      11       7       9       1
       3       1       2       3       2       2       1       3       3       3      16       2       5       9      12      16       4      16       2      15       1
       1       2       3       3       1       1       3       3       2       1       8      12      13       2      13       2       2       6       1      11       2
       1       1       3       2       3       1       1       2       3       2       7       3       7      16       6       1      12      16      11      14       2
       1       3       1       1       2       3       3       3       1       2       1      10       0      13       0       4       2       1      11      16       1
       2       3       1       1       2       2       2       2       2       1      14       3      16       5      14       6      11      13       2      13       2
       2       1       1       2       1       3       1       3       1       3      11       4      11      16       8      16      15      15       7       0       1
       1       2       2       1       2       2       1       2       1       3       7       7      14      13       1       2       8       4       5       3       1
       2       1       3       1       3       2       3       2       1       2      13       8      12      12       0       8       7      16       7       1       2
       2       3       3       1       3       1       2       2       2       3       8       3       9       6       3       0      14       3      16       0       1
       2       1       2       3       2       3       1       3       1       3      16       0       6      12       0       6      15       1      12       2       2
       2       3       3       1       2       1       1       2       2       1      10      12      16      16       5      10      11      15      16      13       2
       1       3       3       3       2       1       3       1       3       2      14      13      12       6       7       1      15       3      11      10       2
       3       3       2       1       3       3       3       1       2       2       7       7       5       1       2       2      10       7      16       5       1
       1       1       2       3       1       3       2       2       3       2       7       1      11      14       0      12       6       6       2      14       1
       1       2       1       2       1       3       2       1       2       1       1       5       5      13       3       9       5       4      11      16       2
       2       3       2       3       3       2       3       1       3       3      16      16       9       7       2      12       3       7       3      14       1
       3       2       2       2       2       3       3       3       1       1      13       7      12      15       9      14      13       0       2      11       2
       2       3       2       1       3       3       2       3       3       1       7      13       1       8      16       1       5       3      14       0       1
       3       2       2       2       3       1       2       3       2       1      10       6       2       2      10      10      16       9      14      15       2
       2       3       1       2       1       3       3       2       2       1      13       7      16       2      12      11      10      10      14      16       2
       2       2       2       1       1       3       1       2       3       2       9       1      13      15       5      15       0       7       7      12       1
       2       2       2       3       3       2       1       2       2       2       4       7       0       8       1       7       9      14      13       8       2
       1       2       1       3       2       1       2       2       2       3       5       5       6       8       3      14       2       1      15       0       2
       1       3       3       2       1       2       2       3       2       3       5       8      14      10      14      12       9       2       8       7       2
       3       3       3       3       3       1       3       1       3       2       5      15       8       6       6      11       8      10       5       5       1
       2       2       2       3       1       3       3       1       2       1      13       2      16       6       5       9       9       0       9       3       1
       3       1       1       3       3       1       1       3       2       3      11       7      12      13       7       2       4      11       6       5       1
       1       2       2       2       1       2       2       3       2       2       8       5      10       0      12       4       6      16       4       8       1
       3       1       2       2       3       1       2       2       1       3       5      13       0       9      11      16       1      10       2       6       1
       1       1       3       2       3       1       3       1       2       1       9       9      12      12      13      14       7       6       2      14       1
       3       2       1       3       2       3       1       1       3       1       3      16       4      12       5      16      12       0      10      11       2
       1       2       1       1       1       1       3       1       3       1      13      16       5      12       5      14       5       6       2       3       2
       3       2       1       3       2       1       1       3       2       3       9       2      12       4      14       6       0       8       8       2       2
       3       3       2       2       2       1       1       3       3       3      13       4       7       5      16      16      15      10       0       5       1
       2       1       3       3       3       1       3       3       1       1      10      13       6      13       2       1      11       5       5       1       2
       1       3       2       2       3       3       2       2       1       3      16      11      13      13      12       2      16      15       6       2       2
       2       1       2       1       1       1       1       2       3       1       0       3       6      15       2      10      14      14       8       2       1
       3       1       2       3       2       1       1       3       2       1       8      12      12       5       7      10       8      13       5       1       1
       3       3       3       3       1       2       3       1       3       1       9      13       7      10       0      13      15       2       5      13       1
       3       2       1       1       3       1       1       3       3       2      11       1       7       1       8      16       6       8       3       2       1
       1       1       2       3       3       3       2       3       2       2       0      13       4       6      14      11       6      16       0      13       2
       1       2       2       2       2       3       2       1       1       1       4       4      16      13      12       8      12      11      11       3       2
       3       1       3       1       3       1       2       3       1       2       6       9       5      13       8       5      14      11      13       5       2
       3       1       3       3       2       2       3       3       1       3       4       8       6      12       1       4       2      15       1      14       2
       3       2       2       2       3       1       3       3       3       1      13       3       9      16      16       6       8       2      12       3       2
       3       2       2       2       3       1       3       2       1       3      14      10      12       4      11       9       9       0       8       6       1
       2       3       2       2       3       1       1       1       2       1       5       4      13      13       0       0       8       5      13       6       2
       3       3       2       3       2       3       2       2       1       1      11      10       6       5       3       0       6       1      14      12       2
       2       2       1       1       3       2       2       1       3       2       2       5       0       5       2      16       5       4       2      15       2
       3       1       1       1       2       2       2       2       2       3       3      13      11      12       7       8       9      16       6       2       1
       1       3       1       2       1       1       2       2       3       1       4      11      13       7       3      12       3      10       2      13       1
       2       1       2       2       1       2       3       3       1       1      12       3       0       0       7      16       2      14       0      15       1
       1       2       3       3       3       2       1       2       2       1      12       0       1      12      10       4       1       7       9       4       1
       1       2       1       3       1       3       1       2       1       2       4       2      16       9       5       2       6      16       8      11       2
       2       2       3       3       1       3       2       3       1       3      15       9       5      13       6       5      16       0       4       8       1
       1       3       3       2       3       1       1       2       2       1       7      10       3       1       5       5      12       5       8      10       2
       3       2       2       3       3       2       2       1       2       2      14       8      13       6      15      16       3       4       1       4       1
       1       3       1       2       2       2       2       3       1       1       0       7       2       7       6      11      15       2       9      16       2
       2       2       2       1       2       3       3       2       1       1       9      13      13      11      13      10      13      14      14      16       2
       3       2       1       1       3       1       2       3       2       3      14       2       6       1      15       9      15      13      11       1       2
       1       3       1       1       3       1       1       2       3       3      13       4       2      12      13      11       0       1      11       1       1
       2       2       2       3       2       1       2       1       3       3       3      10       0      10       3      11       9      11      16       5       2
       2       2       3       2       2       2       3       2       3       2      14       6       8      11      13       8      15      13       9       3       1
       3       3       2       1       2       3       1       1       1       1       4       5      15      12      14      11      13       8      12      11       2
       2       1       3       3       1       1       2       1       1       1      14       2       4       0      12      11      13       5       9       1       2
       3       1       1       3       3       1       1       1       3       1      15      11       9       2      14      14       3      12      13       6       2
       1       1       3       3       2       1       1       2       1       3       4       1       6       3      15      13       7       4       5       2       2
       3       1       1       2       2       3       1       3       1       3       4       1       0       8       8      10       4       9      13       1       1
       2       1       2       1       3       2       1       2       2       3      14       2       6       3       7      12       0      14       7      12       2
       2       1       2       3       2       1       1       2       3       3       4      12      14       2       3      15       9      16       2       0       1
       3       3       3       2       2       1       2       3       1       1       7      10       2       8       7      14       7       1      16       2       1
       1       1       1       2       2       1       1       2       1       1      13      14      10      14       7       8      12      11       9      13       2
       3       2       1       2       1       3       3       2       2       3      14       6      14       2      16       4       7       7       7       6       1
       2       3       2       3       1       2       3       1       3       3      13       8      15       6      15       0       6      10      12      16       2
       3       2       2       2       1       3       2       2       3       2       8      15       2       6       1       3       5       3      12       3       2
       1       3       1       3       2       1       2       1       2       2      11       1       1       0       2       1      15      10       6       6       2
       3       3       2       3       2       3       1       2       1       3      10       1      11       9       7       6       0       7      13       3       1
       2       3       2       3       2       1       2       2       3       3      10       7       8       2       0       7       8       9      10       7       1
       1       2       2       1       2       2       1       1       3       1       3       0      15       6      16       8      14       7       3       3       1
       3       3       3       1       1       2       3       2       1       3       5       2       3      12       6      12       3      12       3       0       1
       3       2       1       3       1       1       2       3       3       1       3      16       1       2      14       0      15      12       0       4       1
       3       2       1       2       1       2       3       3       3       3      15       5      15       8       6       8       8       6       6      16       1
       1       1       1       2       2       1       1       2       2       1      13       1       7       1      11       2      14       8      16       2       1
       1       3       1       3       3       1       3       1       1       3       3       0      11       6       4      11       6       3       8       1       1
       1       1       1       3       1       3       2       2       1       3       5       9       6       7       2       9       5       0       2       1       1
       1       1       3       3       2       2       2       2       3       1       7       9       7       9       1       4      12      11       3      10       2
       1       3       2       2       1       3       3       1       3       1       4      12      12       0       8       6       4      12       9      12       2
       2       2       1       1       1       2       1       3       2       3       9      13       4      11      13       7      11      15       8       3       1
       3       2       3       3       2       3       2       1       3       2       0       3      11       3       6       9      15       1      14      14       2
       3       1       1       3       3       3       2       3       2       3       1      10      10       3       9       2       8       7      15      10       1
       3       3       3       2       2       1       2       1       2       2       9      10       2      12      11       2      12       1      12      15       2
       3       1       3       2       1       2       3       1       3       3      16      16       2       6       5      16       5       1       4      13       1
       3       2       2       2       3       3       1       2       3       2       0      11      16       8      14      10      10       2      14       2       1
       2       3       2       2       1       2       2       1       3       1       3      12      12      11      10      10      12       3       0      14       2
       3       2       2       2       3       2       1       1       3       1      13       5       4       6      13       0       2       6      10       6       2
       1       3       1       1       2       3       3       3       1       1       3       6      13      15      13      10      11       3      13      14       1
       3       2       2       2       1       3       2       2       3       3       5       2       8       1      16       3       7       1      10      15       1
       3       1       1       2       3       3       3       1       3       2       4       8       7       1      13       5       3      16      16       6       1
       2       2       2       1       1       2       3       3       1       2       8       9      12      12       9       1       0       9      10       8       1
       1       1       1       2       2       1       2       1       3       2       0      11       8       3       6       4       3      16      10       1       1
       3       3       3       3       2       2       3       3       3       2       8       6       3      15      11       8       7       3      14       2       1
       3       3       3       3       1       3       1       2       1       1      14       3       5      11      15       8       4       6       5      10       1
       3       1       3       3       3       1       3       2       3       3       7      13       4       2      14      14      11      13       9       4       2
       1       2       2       3       3       2       2       3       2       1      16      10      10       8      14       9       6       1      15      13       1
       1       2       1       3       1       3       2       3       3       2       1       1      16      13       5       8      13       0       4      11       1
       1       3       2       2       1       3       3       1       3       1       3      15       7      13      14      14       9       7      11       0       2
       2       3       3       1       3       3       2       3       2       2      10      10       4       6       6      16       9       2      14       1       2
       2       1       3       3       1       2       3       3       3       2      15       1       2      10      12      14      15       0      13       0       2
       3       3       3       2       2       1       1       2       3       3      10      15      11       8       5      10       1       6       3       3       2
       1       1       1       3       3       3       3       2       1       3       9       3       4       3      10      15      13       3      10       8       1
       2       1       1       2       2       2       1       1       2       1       2      13       3      14       2       7       7       6       3      11       1
       3       1       2       1       1       3       3       2       1       2      13       5       6       7      16      10      10       9      13       3       2
       1       2       3       1       3       2       2       3       3       2       9       4      14       8       5      12      10       7       4       7       1
       3       3       3       1       2       1       2       1       3       3       4       8      11       5       5       5       2      12       5       8       2
       3       2       1       2       3       2       2       3       1       2       8       1       5       9      15       3      11       6       3       3       2
       1       1       1       2       1       2       3       1       2       2      11       8      16      14       0       8      10      10       0      13       2
       3       1       2       1       1       3       2       2       2       1      13      15       1      11       4      13       3      12       5       6       1
       2       3       2       3       2       3       2       2       2       3      15       2      14       1       7       6       3      12      11       6       1
       2       3       2       2       2       2       3       3       1       3      14       2       4      13       4       6       2       2      13       4       2
       2       1       2       3       2       2       1       2       3       2      10      14       2      11      15      16      15       0      15      14       1
       1       1       2       2       3       1       2       2       2       2       8       4       6      12      14       8       2      15       5       6       2
       1       1       1       1       3       3       2       1       3       1      13      15       0      10      10      12       5       9      12       7       1
       3       3       2       3       3       1       2       3       2       3       9       3      10      10       8      11      10       7      15      16       1
       1       2       2       3       3       2       2       3       3       3      14       4       3      14       1       9       6      16      14       3       2
       2       2       3       2       2       1       1       3       3       3      10      11      15      13       8       2      13       5      10       5       1
       3       3       3       1       2       2       1       2       2       2       5       9      15      14       6       4       5       4       0       9       2
       1       2       2       3       1       3       2       1       2       1       5       2       7       4       1       0       6       5       9       5       2
       3       1       1       2       2       3       3       1       2       2       7      12       5       0       5      10      14      11       2       3       1
       2       1       2       3       2       2       1       1       2       2      13       2       4       6       5      10      14      11       9       7       1
       3       3       2       1       2       3       2       3       1       3       1      15       2      10       3       3       5      13       1       3       1
       1       1       1       1       1       1       3       3       3       3       4       8      16       6       0       7      14       5      16       4       1
      39      33      37      45      57      45      54      56      44      49
      79      66      72      95     116      90     106     114      87      97
     148     157     128     175     311     169     256     261     168     192