Reproduction of the Original Problem/results-log/S2-10/S2-5-10-1-s.log
CPXPARAM_Read_DataCheck                          1
Found incumbent of value 0.000000 after 0.00 sec. (0.05 ticks)
Tried aggregator 1 time.
MIP Presolve modified 1 coefficients.
Reduced MIP has 231 rows, 2010 columns, and 10030 nonzeros.
Reduced MIP has 2010 binaries, 0 generals, 0 SOSs, and 0 indicators.
Presolve time = 0.00 sec. (3.92 ticks)
Probing time = 0.00 sec. (1.09 ticks)
Tried aggregator 1 time.
Reduced MIP has 231 rows, 2010 columns, and 10030 nonzeros.
Reduced MIP has 2010 binaries, 0 generals, 0 SOSs, and 0 indicators.
Presolve time = 0.02 sec. (4.66 ticks)
Probing time = 0.00 sec. (1.43 ticks)
Clique table members: 2106.
MIP emphasis: balance optimality and feasibility.
MIP search method: dynamic search.
Parallel mode: deterministic, using up to 4 threads.
Root relaxation solution time = 0.02 sec. (8.62 ticks)

        Nodes                                         Cuts/
   Node  Left     Objective  IInf  Best Integer    Best Bound    ItCnt     Gap

*     0+    0                            0.0000    12192.0000              --- 
*     0+    0                         1891.0000    12192.0000           544.74%
      0     0     3416.2067    12     1891.0000     3416.2067      395   80.66%
      0     0     2823.2009   159     1891.0000     Cuts: 157      778   49.30%
*     0+    0                         2318.0000     2823.2009            21.79%
      0     0     2547.5249   305     2318.0000     Cuts: 157     1176    9.90%
      0     0     2444.6061   407     2318.0000     Cuts: 157     1496    5.46%
*     0+    0                         2393.0000     2444.6061             2.16%
      0     0     2401.2570   381     2393.0000     Cuts: 157     1829    0.35%
*     0+    0                         2394.0000     2401.2570             0.30%
*     0+    0                         2395.0000     2401.2570             0.26%
*     0+    0                         2396.0000     2401.2570             0.22%
*     0+    0                         2397.0000     2401.2570             0.18%

Repeating presolve.
Tried aggregator 1 time.
MIP Presolve eliminated 3 rows and 1073 columns.
MIP Presolve modified 9 coefficients.
Reduced MIP has 228 rows, 937 columns, and 4569 nonzeros.
Reduced MIP has 937 binaries, 0 generals, 0 SOSs, and 0 indicators.
Presolve time = 0.00 sec. (2.34 ticks)
Probing time = 0.00 sec. (1.09 ticks)
Tried aggregator 1 time.
Reduced MIP has 228 rows, 937 columns, and 4569 nonzeros.
Reduced MIP has 937 binaries, 0 generals, 0 SOSs, and 0 indicators.
Presolve time = 0.00 sec. (2.17 ticks)
Represolve time = 0.02 sec. (10.22 ticks)
Probing time = 0.00 sec. (1.09 ticks)
Clique table members: 939.
MIP emphasis: balance optimality and feasibility.
MIP search method: dynamic search.
Parallel mode: deterministic, using up to 4 threads.
Root relaxation solution time = 0.03 sec. (26.76 ticks)

        Nodes                                         Cuts/
   Node  Left     Objective  IInf  Best Integer    Best Bound    ItCnt     Gap

*     0+    0                         2397.0000     2401.2570             0.18%
      0     0     2401.1415   251     2397.0000     2401.1415     2711    0.17%
*     0+    0                         2398.0000     2401.1415             0.13%
      0     0        cutoff           2398.0000     2398.0000     2799    0.00%
Elapsed time = 0.61 sec. (349.78 ticks, tree = 0.01 MB, solutions = 9)

Clique cuts applied:  277
Cover cuts applied:  14
Implied bound cuts applied:  10
Flow cuts applied:  4
Mixed integer rounding cuts applied:  26
Zero-half cuts applied:  10

Root node processing (before b&c):
  Real time             =    0.61 sec. (349.99 ticks)
Parallel b&c, 4 threads:
  Real time             =    0.00 sec. (0.00 ticks)
  Sync time (average)   =    0.00 sec.
  Wait time (average)   =    0.00 sec.
                          ------------
Total (root+branch&cut) =    0.61 sec. (349.99 ticks)
